# Solution for model r10_t27_m1_9
# Finished Task: 26 / 27
# Makespan: 491.0, Total Distance: 1425.0, Total Time: 0.2708
# R O S F
0 0 12 0.0 0.0
1 1 19 0.0 0.0
2 2 31 0.0 0.0
3 3 32 0.0 0.0
4 4 22 0.0 0.0
5 5 17 0.0 0.0
6 6 34 0.0 0.0
7 7 24 0.0 0.0
8 8 18 0.0 0.0
9 9 14 0.0 0.0
10 9 -1 452.0 481.0
11 7 25 200.0 237.0
12 0 15 338.0 363.0
13 3 -1 454.0 479.0
14 9 29 109.0 142.0
15 0 23 391.0 422.0
16 -1 -1 -1.0 -1.0
17 5 20 300.0 333.0
18 8 33 100.0 127.0
19 1 30 351.0 378.0
20 5 -1 378.0 413.0
21 7 -1 460.0 491.0
22 4 -1 345.0 366.0
23 0 -1 422.0 454.0
24 7 11 144.0 181.0
25 7 21 374.0 406.0
26 3 13 378.0 402.0
27 8 35 266.0 287.0
28 8 -1 351.0 382.0
29 9 36 195.0 231.0
30 1 -1 465.0 486.0
31 2 -1 363.0 385.0
32 3 26 76.0 98.0
33 8 27 229.0 266.0
34 6 -1 402.0 440.0
35 8 28 299.0 321.0
36 9 10 332.0 363.0
